solution status: time limit reached
objective value:                                  -96
x0                                                  1 	(obj:-1)
x17                                                 1 	(obj:-1)
x32                                                 1 	(obj:-1)
x50                                                 1 	(obj:-1)
x67                                                 1 	(obj:-1)
x100                                                1 	(obj:-1)
x113                                                1 	(obj:-1)
x133                                                1 	(obj:-1)
x147                                                1 	(obj:-1)
x174                                                1 	(obj:-1)
x198                                                1 	(obj:-1)
x214                                                1 	(obj:-1)
x227                                                1 	(obj:-1)
x242                                                1 	(obj:-1)
x266                                                1 	(obj:-1)
x308                                                1 	(obj:-1)
x322                                                1 	(obj:-1)
x350                                                1 	(obj:-1)
x361                                                1 	(obj:-1)
x371                                                1 	(obj:-1)
x422                                                1 	(obj:-1)
x440                                                1 	(obj:-1)
x465                                                1 	(obj:-1)
x481                                                1 	(obj:-1)
x507                                                1 	(obj:-1)
x527                                                1 	(obj:-1)
x532                                                1 	(obj:-1)
x554                                                1 	(obj:-1)
x562                                                1 	(obj:-1)
x578                                                1 	(obj:-1)
x592                                                1 	(obj:-1)
x618                                                1 	(obj:-1)
x629                                                1 	(obj:-1)
x675                                                1 	(obj:-1)
x693                                                1 	(obj:-1)
x704                                                1 	(obj:-1)
x740                                                1 	(obj:-1)
x767                                                1 	(obj:-1)
x768                                                1 	(obj:-1)
x808                                                1 	(obj:-1)
x833                                                1 	(obj:-1)
x852                                                1 	(obj:-1)
x879                                                1 	(obj:-1)
x895                                                1 	(obj:-1)
x936                                                1 	(obj:-1)
x952                                                1 	(obj:-1)
x991                                                1 	(obj:-1)
x1000                                               1 	(obj:-1)
x1016                                               1 	(obj:-1)
x1086                                               1 	(obj:-1)
x1125                                               1 	(obj:-1)
x1136                                               1 	(obj:-1)
x1172                                               1 	(obj:-1)
x1190                                               1 	(obj:-1)
x1210                                               1 	(obj:-1)
x1216                                               1 	(obj:-1)
x1237                                               1 	(obj:-1)
x1252                                               1 	(obj:-1)
x1278                                               1 	(obj:-1)
x1284                                               1 	(obj:-1)
x1296                                               1 	(obj:-1)
x1317                                               1 	(obj:-1)
x1336                                               1 	(obj:-1)
x1369                                               1 	(obj:-1)
x1407                                               1 	(obj:-1)
x1409                                               1 	(obj:-1)
x1439                                               1 	(obj:-1)
x1446                                               1 	(obj:-1)
x1466                                               1 	(obj:-1)
x1482                                               1 	(obj:-1)
x1496                                               1 	(obj:-1)
x1518                                               1 	(obj:-1)
x1537                                               1 	(obj:-1)
x1574                                               1 	(obj:-1)
x1587                                               1 	(obj:-1)
x1621                                               1 	(obj:-1)
x1649                                               1 	(obj:-1)
x1664                                               1 	(obj:-1)
x1682                                               1 	(obj:-1)
x1698                                               1 	(obj:-1)
x1742                                               1 	(obj:-1)
x1766                                               1 	(obj:-1)
x1796                                               1 	(obj:-1)
x1839                                               1 	(obj:-1)
x1865                                               1 	(obj:-1)
x1874                                               1 	(obj:-1)
x1898                                               1 	(obj:-1)
x1918                                               1 	(obj:-1)
x1923                                               1 	(obj:-1)
x1950                                               1 	(obj:-1)
x1958                                               1 	(obj:-1)
x1974                                               1 	(obj:-1)
x1995                                               1 	(obj:-1)
x2015                                               1 	(obj:-1)
x2021                                               1 	(obj:-1)
x2040                                               1 	(obj:-1)
x2050                                               1 	(obj:0)
x2064                                               1 	(obj:0)
x2082                                               1 	(obj:0)
x2097                                               1 	(obj:0)
x2114                                               1 	(obj:0)
x2143                                               1 	(obj:0)
x2159                                               1 	(obj:0)
x2160                                               1 	(obj:0)
x2190                                               1 	(obj:0)
x2200                                               1 	(obj:0)
x2222                                               1 	(obj:0)
x2226                                               1 	(obj:0)
x2250                                               1 	(obj:0)
x2264                                               1 	(obj:0)
x2278                                               1 	(obj:0)
x2302                                               1 	(obj:0)
x2318                                               1 	(obj:0)
x2326                                               1 	(obj:0)
x2344                                               1 	(obj:0)
x2358                                               1 	(obj:0)
x2382                                               1 	(obj:0)
x2399                                               1 	(obj:0)
x2400                                               1 	(obj:0)
x2416                                               1 	(obj:0)
x2436                                               1 	(obj:0)
x2452                                               1 	(obj:0)
x2465                                               1 	(obj:0)
x2481                                               1 	(obj:0)
x2511                                               1 	(obj:0)
x2521                                               1 	(obj:0)
x2529                                               1 	(obj:0)
x2545                                               1 	(obj:0)
x2570                                               1 	(obj:0)
x2580                                               1 	(obj:0)
x2597                                               1 	(obj:0)
x2618                                               1 	(obj:0)
x2625                                               1 	(obj:0)
x2643                                               1 	(obj:0)
x2667                                               1 	(obj:0)
x2672                                               1 	(obj:0)
x2688                                               1 	(obj:0)
x2708                                               1 	(obj:0)
x2720                                               1 	(obj:0)
x2740                                               1 	(obj:0)
x2755                                               1 	(obj:0)
x2776                                               1 	(obj:0)
x2784                                               1 	(obj:0)
x2814                                               1 	(obj:0)
x2827                                               1 	(obj:0)
x2836                                               1 	(obj:0)
x2854                                               1 	(obj:0)
x2866                                               1 	(obj:0)
x2881                                               1 	(obj:0)
x2900                                               1 	(obj:0)
x2913                                               1 	(obj:0)
x2934                                               1 	(obj:0)
x2945                                               1 	(obj:0)
x2962                                               1 	(obj:0)
x2976                                               1 	(obj:0)
x2996                                               1 	(obj:0)
x3023                                               1 	(obj:0)
x3028                                               1 	(obj:0)
x3046                                               1 	(obj:0)
x3056                                               1 	(obj:0)
x3082                                               1 	(obj:0)
x3093                                               1 	(obj:0)
x3107                                               1 	(obj:0)
x3125                                               1 	(obj:0)
x3150                                               1 	(obj:0)
x3152                                               1 	(obj:0)
x3169                                               1 	(obj:0)
x3192                                               1 	(obj:0)
x3209                                               1 	(obj:0)
x3219                                               1 	(obj:0)
x3247                                               1 	(obj:0)
x3256                                               1 	(obj:0)
x3269                                               1 	(obj:0)
x3285                                               1 	(obj:0)
x3298                                               1 	(obj:0)
x3320                                               1 	(obj:0)
x3337                                               1 	(obj:0)
x3358                                               1 	(obj:0)
x3364                                               1 	(obj:0)
x3380                                               1 	(obj:0)
x3402                                               1 	(obj:0)
x3413                                               1 	(obj:0)
x3430                                               1 	(obj:0)
x3455                                               1 	(obj:0)
x3464                                               1 	(obj:0)
